
Log started (V12.8.0.0) Thu Aug 30 11:26:48 2018

New value for time limit in seconds: 500
CPXPARAM_TimeLimit                               500
CPXPARAM_Emphasis_Numerical                      1
CPXPARAM_Parallel                                -1
CPXPARAM_Benders_Strategy                        3
CPXPARAM_MIP_Tolerances_Integrality              9.9999999999999995e-08
CPXPARAM_MIP_Pool_AbsGap                         0
Tried aggregator 4 times.
MIP Presolve eliminated 8926 rows and 4202 columns.
MIP Presolve added 236 rows and 0 columns.
MIP Presolve modified 52 coefficients.
Aggregator did 1872 substitutions.
Reduced MIP has 5622 rows, 4967 columns, and 20320 nonzeros.
Reduced MIP has 258 binaries, 0 generals, 0 SOSs, and 0 indicators.
Presolve time = 0.02 sec. (25.68 ticks)
Found incumbent of value -65.112166 after 0.05 sec. (46.67 ticks)
Tried aggregator 2 times.
MIP Presolve eliminated 240 rows and 0 columns.
MIP Presolve added 236 rows and 0 columns.
MIP Presolve modified 18 coefficients.
Aggregator did 2 substitutions.
Reduced MIP has 5616 rows, 4965 columns, and 20306 nonzeros.
Reduced MIP has 256 binaries, 0 generals, 0 SOSs, and 0 indicators.
Presolve time = 0.01 sec. (9.92 ticks)

        Nodes                                         Cuts/
   Node  Left     Objective  IInf  Best Integer    Best Bound    ItCnt     Gap

      0     0        0.0000                       Benders: 10        0         
      0     0        0.0000                        Benders: 2        1         
      0     0        0.0000                        Benders: 1        4         
      0     0        0.0000                        Benders: 2        6         
      0     0        0.0000                        Benders: 1        7         
      0     0        0.0000                        Benders: 1        8         
      0     0        0.0000                            0.0000        9         
Tried aggregator 1 time.
MIP Presolve eliminated 233 rows and 0 columns.
MIP Presolve modified 299 coefficients.
Reduced MIP has 258 rows, 266 columns, and 933 nonzeros.
Reduced MIP has 256 binaries, 0 generals, 0 SOSs, and 0 indicators.
Presolve time = 0.00 sec. (1.15 ticks)
Probing time = 0.00 sec. (0.63 ticks)
Tried aggregator 1 time.
Reduced MIP has 258 rows, 266 columns, and 933 nonzeros.
Reduced MIP has 256 binaries, 0 generals, 0 SOSs, and 0 indicators.
Presolve time = 0.00 sec. (0.64 ticks)
Probing time = 0.00 sec. (0.62 ticks)
Clique table members: 741.
MIP emphasis: balance optimality and feasibility.
MIP search method: dynamic search.
Parallel mode: opportunistic, using up to 8 threads.
Root relaxation solution time = 0.00 sec. (0.35 ticks)
*     0+    0                          -59.2205       -0.0000           100.00%
      0     0        0.0000     4      -59.2205       -0.0000       32  100.00%
      0     0        0.0000     7      -59.2205       Cuts: 5       38  100.00%
      0     0        0.0000     4      -59.2205       Cuts: 2       40  100.00%
      0     0        0.0000    10      -59.2205      Cuts: 12       49  100.00%
*     0+    0                          -53.5070       -0.0000           100.00%

Repeating presolve.
Tried aggregator 1 time.
MIP Presolve modified 37 coefficients.
Reduced MIP has 258 rows, 266 columns, and 933 nonzeros.
Reduced MIP has 256 binaries, 0 generals, 0 SOSs, and 0 indicators.
Presolve time = 0.00 sec. (0.66 ticks)
Probing time = 0.00 sec. (0.58 ticks)
Tried aggregator 1 time.
Reduced MIP has 258 rows, 266 columns, and 933 nonzeros.
Reduced MIP has 256 binaries, 0 generals, 0 SOSs, and 0 indicators.
Presolve time = 0.00 sec. (0.64 ticks)
Represolve time = 0.01 sec. (3.07 ticks)
Probing time = 0.00 sec. (0.58 ticks)
Clique table members: 741.
MIP emphasis: balance optimality and feasibility.
MIP search method: dynamic search.
Parallel mode: opportunistic, using up to 8 threads.
Root relaxation solution time = 0.00 sec. (0.80 ticks)
*     0+    0                          -53.5070       -0.0000           100.00%
      0     0        0.0000     7      -53.5070       -0.0000       85  100.00%
      0     0        0.0000     9      -53.5070      Fract: 4       86  100.00%
      0     0        0.0000     9      -53.5070      Cuts: 11       96  100.00%
*     0+    0                          -34.1346       -0.0000           100.00%
*     0+    0                          -34.1346     Cuts: 110           100.00%
      0     2        0.0000    12      -34.1346       -0.0000       96  100.00%
Elapsed time = 1.51 sec. (1422.26 ticks, tree = 0.01 MB, solutions = 1)
*    79+   17                          -31.8327       -0.0000           100.00%
    115     6      -25.3756    16      -31.8327       -0.0000      140  100.00%
*   140    48      integral     0      -30.9057       -0.0000      961  100.00%
    792   107      -18.5642    21      -30.3104       -8.1326     3928   73.17%
*   969    90      integral     0      -29.3834       -8.1326    10747   72.32%
*   994+   61                          -28.7916       -8.1326            71.75%

Benders cuts applied:  678
Flow cuts applied:  7
Mixed integer rounding cuts applied:  10
Gomory fractional cuts applied:  14

Root node processing (before b&c):
  Real time             =    1.40 sec. (1420.91 ticks)
Parallel b&c, 8 threads:
  Real time             =    0.92 sec. (665.53 ticks)
  Sync time (average)   =    0.06 sec.
  Wait time (average)   =    0.01 sec.
                          ------------
Total (root+branch&cut) =    2.32 sec. (2086.43 ticks)

Solution pool: 1 solution saved.

MIP - Integer optimal solution:  Objective = -2.8791574000e+01
Solution time =    2.33 sec.  Iterations = 11777  Nodes = 1152 (1)
Deterministic time = 2087.28 ticks  (896.95 ticks/sec)


Solution pool written to file 'lsgcp_a3_b1_n2.sol'.
Current MIP best bound = -2.8791574000e+01 (gap = -0, 0.00%)
